0	39	194	0	200
1	201	313	0	200
2	346	400	0	200
3	402	432	0	200
4	112	363	0	200
5	105	183	0	200
6	59	332	0	200
7	410	186	0	200
8	195	257	0	200
9	424	192	0	200
10	273	100	0	200
11	308	254	0	200
12	487	76	0	200
13	151	288	0	200
14	78	489	0	200
15	234	493	0	200
16	454	200	0	200
17	337	444	0	200
18	186	481	0	200
19	201	320	0	200
20	277	106	0	200
21	27	210	0	200
22	313	344	0	200
23	472	470	0	200
24	449	37	0	200
